p cnf 419 905
120 -15 -67 0
121 -57 -120 0
122 -25 -121 0
123 -36 -77 0
124 -47 -123 0
125 -4 -124 0
-126 109 0
-126 -125 0
-127 87 0
-127 -122 0
128 126 127 0
-129 80 0
-129 -107 0
129 -80 107 0
-130 -108 0
-130 129 0
130 108 -129 0
-131 50 0
-131 107 0
131 -50 -107 0
-132 -108 0
-132 131 0
132 108 -131 0
-133 70 0
-133 -107 0
133 -70 107 0
-134 108 0
-134 133 0
134 -108 -133 0
-135 60 0
-135 107 0
135 -60 -107 0
-136 108 0
-136 135 0
136 -108 -135 0
-137 -130 0
-137 -132 0
137 130 132 0
-138 -134 0
-138 137 0
138 134 -137 0
-139 -136 0
-139 138 0
139 136 -138 0
-140 79 0
-140 -107 0
140 -79 107 0
-141 -108 0
-141 140 0
141 108 -140 0
-142 49 0
-142 107 0
142 -49 -107 0
-143 -108 0
-143 142 0
143 108 -142 0
-144 69 0
-144 -107 0
144 -69 107 0
-145 108 0
-145 144 0
145 -108 -144 0
-146 59 0
-146 107 0
146 -59 -107 0
-147 108 0
-147 146 0
147 -108 -146 0
-148 -141 0
-148 -143 0
148 141 143 0
-149 -145 0
-149 148 0
149 145 -148 0
-150 -147 0
-150 149 0
150 147 -149 0
-151 81 0
-151 -107 0
151 -81 107 0
-152 -108 0
-152 151 0
152 108 -151 0
-153 51 0
-153 107 0
153 -51 -107 0
-154 -108 0
-154 153 0
154 108 -153 0
-155 71 0
-155 -107 0
155 -71 107 0
-156 108 0
-156 155 0
156 -108 -155 0
-157 61 0
-157 107 0
157 -61 -107 0
-158 108 0
-158 157 0
158 -108 -157 0
-159 -152 0
-159 -154 0
159 152 154 0
-160 -156 0
-160 159 0
160 156 -159 0
-161 -158 0
-161 160 0
161 158 -160 0
-162 40 0
-162 -86 0
162 -40 86 0
-163 -88 0
-163 162 0
163 88 -162 0
-164 8 0
-164 86 0
164 -8 -86 0
-165 -88 0
-165 164 0
165 88 -164 0
-166 18 0
-166 -86 0
166 -18 86 0
-167 88 0
-167 166 0
167 -88 -166 0
-168 29 0
-168 86 0
168 -29 -86 0
-169 88 0
-169 168 0
169 -88 -168 0
-170 -163 0
-170 -165 0
170 163 165 0
-171 -167 0
-171 170 0
171 167 -170 0
-172 -169 0
-172 171 0
172 169 -171 0
-173 41 0
-173 -86 0
173 -41 86 0
-174 -88 0
-174 173 0
174 88 -173 0
-175 9 0
-175 86 0
175 -9 -86 0
-176 -88 0
-176 175 0
176 88 -175 0
-177 19 0
-177 -86 0
177 -19 86 0
-178 88 0
-178 177 0
178 -88 -177 0
-179 30 0
-179 86 0
179 -30 -86 0
-180 88 0
-180 179 0
180 -88 -179 0
-181 -174 0
-181 -176 0
181 174 176 0
-182 -178 0
-182 181 0
182 178 -181 0
-183 -180 0
-183 182 0
183 180 -182 0
-184 42 0
-184 -86 0
184 -42 86 0
-185 -88 0
-185 184 0
185 88 -184 0
-186 10 0
-186 86 0
186 -10 -86 0
-187 -88 0
-187 186 0
187 88 -186 0
-188 20 0
-188 -86 0
188 -20 86 0
-189 88 0
-189 188 0
189 -88 -188 0
-190 31 0
-190 86 0
190 -31 -86 0
-191 88 0
-191 190 0
191 -88 -190 0
-192 -185 0
-192 -187 0
192 185 187 0
-193 -189 0
-193 192 0
193 189 -192 0
-194 -191 0
-194 193 0
194 191 -193 0
-195 35 0
-195 -86 0
195 -35 86 0
-196 -88 0
-196 195 0
196 88 -195 0
-197 3 0
-197 86 0
197 -3 -86 0
-198 -88 0
-198 197 0
198 88 -197 0
-199 14 0
-199 -86 0
199 -14 86 0
-200 88 0
-200 199 0
200 -88 -199 0
-201 24 0
-201 86 0
201 -24 -86 0
-202 88 0
-202 201 0
202 -88 -201 0
-203 -196 0
-203 -198 0
203 196 198 0
-204 -200 0
-204 203 0
204 200 -203 0
-205 -202 0
-205 204 0
205 202 -204 0
-206 43 0
-206 -86 0
206 -43 86 0
-207 -88 0
-207 206 0
207 88 -206 0
-208 11 0
-208 86 0
208 -11 -86 0
-209 -88 0
-209 208 0
209 88 -208 0
-210 21 0
-210 -86 0
210 -21 86 0
-211 88 0
-211 210 0
211 -88 -210 0
-212 32 0
-212 86 0
212 -32 -86 0
-213 88 0
-213 212 0
213 -88 -212 0
-214 -207 0
-214 -209 0
214 207 209 0
-215 -211 0
-215 214 0
215 211 -214 0
-216 -213 0
-216 215 0
216 213 -215 0
-217 39 0
-217 -86 0
217 -39 86 0
-218 -88 0
-218 217 0
218 88 -217 0
-219 7 0
-219 86 0
219 -7 -86 0
-220 -88 0
-220 219 0
220 88 -219 0
-221 -86 0
-221 88 0
221 86 -88 0
-222 28 0
-222 86 0
222 -28 -86 0
-223 88 0
-223 222 0
223 -88 -222 0
-224 -218 0
-224 -220 0
224 218 220 0
-225 -221 0
-225 224 0
225 221 -224 0
-226 -223 0
-226 225 0
226 223 -225 0
-227 38 0
-227 -86 0
227 -38 86 0
-228 -88 0
-228 227 0
228 88 -227 0
-229 6 0
-229 86 0
229 -6 -86 0
-230 -88 0
-230 229 0
230 88 -229 0
-231 17 0
-231 -86 0
231 -17 86 0
-232 88 0
-232 231 0
232 -88 -231 0
-233 27 0
-233 86 0
233 -27 -86 0
-234 88 0
-234 233 0
234 -88 -233 0
-235 -228 0
-235 -230 0
235 228 230 0
-236 -232 0
-236 235 0
236 232 -235 0
-237 -234 0
-237 236 0
237 234 -236 0
-238 37 0
-238 -86 0
238 -37 86 0
-239 -88 0
-239 238 0
239 88 -238 0
-240 5 0
-240 86 0
240 -5 -86 0
-241 -88 0
-241 240 0
241 88 -240 0
-242 16 0
-242 -86 0
242 -16 86 0
-243 88 0
-243 242 0
243 -88 -242 0
-244 26 0
-244 86 0
244 -26 -86 0
-245 88 0
-245 244 0
245 -88 -244 0
-246 -239 0
-246 -241 0
246 239 241 0
-247 -243 0
-247 246 0
247 243 -246 0
-248 -245 0
-248 247 0
248 245 -247 0
-249 44 0
-249 -86 0
249 -44 86 0
-250 -88 0
-250 249 0
250 88 -249 0
-251 12 0
-251 86 0
251 -12 -86 0
-252 -88 0
-252 251 0
252 88 -251 0
-253 22 0
-253 -86 0
253 -22 86 0
-254 88 0
-254 253 0
254 -88 -253 0
-255 33 0
-255 86 0
255 -33 -86 0
-256 88 0
-256 255 0
256 -88 -255 0
-257 -250 0
-257 -252 0
257 250 252 0
-258 -254 0
-258 257 0
258 254 -257 0
-259 -256 0
-259 258 0
259 256 -258 0
-260 -107 0
-260 -108 0
260 107 108 0
-261 107 0
-261 -108 0
261 -107 108 0
-262 -107 0
-262 108 0
262 107 -108 0
-263 107 0
-263 108 0
263 -107 -108 0
-264 -260 0
-264 -261 0
264 260 261 0
-265 -262 0
-265 264 0
265 262 -264 0
-266 -263 0
-266 265 0
266 263 -265 0
-267 78 0
-267 -107 0
267 -78 107 0
-268 -108 0
-268 267 0
268 108 -267 0
-269 48 0
-269 107 0
269 -48 -107 0
-270 -108 0
-270 269 0
270 108 -269 0
-271 68 0
-271 -107 0
271 -68 107 0
-272 108 0
-272 271 0
272 -108 -271 0
-273 58 0
-273 107 0
273 -58 -107 0
-274 108 0
-274 273 0
274 -108 -273 0
-275 -268 0
-275 -270 0
275 268 270 0
-276 -272 0
-276 275 0
276 272 -275 0
-277 -274 0
-277 276 0
277 274 -276 0
-278 -117 116 0
-278 117 -116 0
278 -117 -116 0
278 117 116 0
-279 90 -89 0
-279 -90 89 0
279 90 89 0
279 -90 -89 0
-280 -279 278 0
-280 279 -278 0
280 -279 -278 0
280 279 278 0
-281 -111 110 0
-281 111 -110 0
281 -111 -110 0
281 111 110 0
-282 -113 112 0
-282 113 -112 0
282 -113 -112 0
282 113 112 0
-283 -115 114 0
-283 115 -114 0
283 -115 -114 0
283 115 114 0
-284 -281 0
-284 282 0
284 281 -282 0
-285 281 0
-285 282 0
285 -281 -282 0
-286 283 -285 0
-286 -283 -284 0
286 283 285 0
286 -283 284 0
-287 281 0
-287 -282 0
287 -281 282 0
-288 -281 0
-288 -282 0
288 281 282 0
-289 283 -288 0
-289 -283 -287 0
289 283 288 0
289 -283 287 0
-290 286 0
-290 289 0
290 -286 -289 0
-291 -290 280 0
-291 290 -280 0
-292 1 0
-292 291 0
-293 106 -105 0
-293 -106 105 0
293 106 105 0
293 -106 -105 0
-294 -119 100 0
-294 119 -100 0
294 -119 -100 0
294 119 100 0
-295 102 -101 0
-295 -102 101 0
295 102 101 0
295 -102 -101 0
-296 104 -103 0
-296 -104 103 0
296 104 103 0
296 -104 -103 0
-297 -294 0
-297 295 0
297 294 -295 0
-298 294 0
-298 295 0
298 -294 -295 0
-299 296 -298 0
-299 -296 -297 0
299 296 298 0
299 -296 297 0
-300 294 0
-300 -295 0
300 -294 295 0
-301 -294 0
-301 -295 0
301 294 295 0
-302 296 -301 0
-302 -296 -300 0
302 296 301 0
302 -296 300 0
-303 299 0
-303 302 0
303 -299 -302 0
-304 -303 293 0
-304 303 -293 0
-305 97 -96 0
-305 -97 96 0
305 97 96 0
305 -97 -96 0
-306 99 -98 0
-306 -99 98 0
306 99 98 0
306 -99 -98 0
-307 -306 305 0
-307 306 -305 0
307 -306 -305 0
307 306 305 0
-308 -118 91 0
-308 118 -91 0
308 -118 -91 0
308 118 91 0
-309 93 -92 0
-309 -93 92 0
309 93 92 0
309 -93 -92 0
-310 95 -94 0
-310 -95 94 0
310 95 94 0
310 -95 -94 0
-311 -308 0
-311 309 0
311 308 -309 0
-312 308 0
-312 309 0
312 -308 -309 0
-313 310 -312 0
-313 -310 -311 0
313 310 312 0
313 -310 311 0
-314 308 0
-314 -309 0
314 -308 309 0
-315 -308 0
-315 -309 0
315 308 309 0
-316 310 -315 0
-316 -310 -314 0
316 310 315 0
316 -310 314 0
-317 313 0
-317 316 0
317 -313 -316 0
-318 -317 307 0
-318 317 -307 0
-319 76 0
-319 -107 0
319 -76 107 0
-320 -108 0
-320 319 0
320 108 -319 0
-321 46 0
-321 107 0
321 -46 -107 0
-322 -108 0
-322 321 0
322 108 -321 0
-323 66 0
-323 -107 0
323 -66 107 0
-324 108 0
-324 323 0
324 -108 -323 0
-325 56 0
-325 107 0
325 -56 -107 0
-326 108 0
-326 325 0
326 -108 -325 0
-327 -320 0
-327 -322 0
327 320 322 0
-328 -324 0
-328 327 0
328 324 -327 0
-329 -326 0
-329 328 0
329 326 -328 0
-330 82 0
-330 -107 0
330 -82 107 0
-331 -108 0
-331 330 0
331 108 -330 0
-332 52 0
-332 107 0
332 -52 -107 0
-333 -108 0
-333 332 0
333 108 -332 0
-334 72 0
-334 -107 0
334 -72 107 0
-335 108 0
-335 334 0
335 -108 -334 0
-336 62 0
-336 107 0
336 -62 -107 0
-337 108 0
-337 336 0
337 -108 -336 0
-338 -331 0
-338 -333 0
338 331 333 0
-339 -335 0
-339 338 0
339 335 -338 0
-340 -337 0
-340 339 0
340 337 -339 0
-341 83 0
-341 -107 0
341 -83 107 0
-342 -108 0
-342 341 0
342 108 -341 0
-343 53 0
-343 107 0
343 -53 -107 0
-344 -108 0
-344 343 0
344 108 -343 0
-345 73 0
-345 -107 0
345 -73 107 0
-346 108 0
-346 345 0
346 -108 -345 0
-347 63 0
-347 107 0
347 -63 -107 0
-348 108 0
-348 347 0
348 -108 -347 0
-349 -342 0
-349 -344 0
349 342 344 0
-350 -346 0
-350 349 0
350 346 -349 0
-351 -348 0
-351 350 0
351 348 -350 0
-352 84 0
-352 -107 0
352 -84 107 0
-353 -108 0
-353 352 0
353 108 -352 0
-354 54 0
-354 107 0
354 -54 -107 0
-355 -108 0
-355 354 0
355 108 -354 0
-356 74 0
-356 -107 0
356 -74 107 0
-357 108 0
-357 356 0
357 -108 -356 0
-358 64 0
-358 107 0
358 -64 -107 0
-359 108 0
-359 358 0
359 -108 -358 0
-360 -353 0
-360 -355 0
360 353 355 0
-361 -357 0
-361 360 0
361 357 -360 0
-362 -359 0
-362 361 0
362 359 -361 0
-363 45 0
-363 -86 0
363 -45 86 0
-364 -88 0
-364 363 0
364 88 -363 0
-365 13 0
-365 86 0
365 -13 -86 0
-366 -88 0
-366 365 0
366 88 -365 0
-367 23 0
-367 -86 0
367 -23 86 0
-368 88 0
-368 367 0
368 -88 -367 0
-369 34 0
-369 86 0
369 -34 -86 0
-370 88 0
-370 369 0
370 -88 -369 0
-371 -364 0
-371 -366 0
371 364 366 0
-372 -368 0
-372 371 0
372 368 -371 0
-373 -370 0
-373 372 0
373 370 -372 0
-374 -150 139 0
-374 150 -139 0
374 -150 -139 0
374 150 139 0
-375 277 -266 0
-375 -277 266 0
375 277 266 0
375 -277 -266 0
-376 -375 374 0
-376 375 -374 0
376 -375 -374 0
376 375 374 0
-377 85 0
-377 -107 0
377 -85 107 0
-378 -108 0
-378 377 0
378 108 -377 0
-379 55 0
-379 107 0
379 -55 -107 0
-380 -108 0
-380 379 0
380 108 -379 0
-381 75 0
-381 -107 0
381 -75 107 0
-382 108 0
-382 381 0
382 -108 -381 0
-383 65 0
-383 107 0
383 -65 -107 0
-384 108 0
-384 383 0
384 -108 -383 0
-385 -378 0
-385 -380 0
385 378 380 0
-386 -382 0
-386 385 0
386 382 -385 0
-387 -384 0
-387 386 0
387 384 -386 0
-388 387 -329 0
-388 -387 329 0
388 387 329 0
388 -387 -329 0
-389 362 -351 0
-389 -362 351 0
389 362 351 0
389 -362 -351 0
-390 340 -161 0
-390 -340 161 0
390 340 161 0
390 -340 -161 0
-391 -388 0
-391 389 0
391 388 -389 0
-392 388 0
-392 389 0
392 -388 -389 0
-393 390 -392 0
-393 -390 -391 0
393 390 392 0
393 -390 391 0
-394 388 0
-394 -389 0
394 -388 389 0
-395 -388 0
-395 -389 0
395 388 389 0
-396 390 -395 0
-396 -390 -394 0
396 390 395 0
396 -390 394 0
-397 393 0
-397 396 0
397 -393 -396 0
-398 -397 376 0
-398 397 -376 0
-399 -2 0
-399 398 0
-400 226 -172 0
-400 -226 172 0
400 226 172 0
400 -226 -172 0
-401 248 -237 0
-401 -248 237 0
401 248 237 0
401 -248 -237 0
-402 -401 400 0
-402 401 -400 0
402 -401 -400 0
402 401 400 0
-403 -373 205 0
-403 373 -205 0
403 -373 -205 0
403 373 205 0
-404 -259 216 0
-404 259 -216 0
404 -259 -216 0
404 259 216 0
-405 -194 183 0
-405 194 -183 0
405 -194 -183 0
405 194 183 0
-406 -403 0
-406 404 0
406 403 -404 0
-407 403 0
-407 404 0
407 -403 -404 0
-408 405 -407 0
-408 -405 -406 0
408 405 407 0
408 -405 406 0
-409 403 0
-409 -404 0
409 -403 404 0
-410 -403 0
-410 -404 0
410 403 404 0
-411 405 -410 0
-411 -405 -409 0
411 405 410 0
411 -405 409 0
-412 408 0
-412 411 0
412 -408 -411 0
-413 -412 402 0
-413 412 -402 0
-414 -2 0
-414 413 0
415 399 414 0
416 304 -415 0
417 292 318 0
418 -416 -417 0
419 -128 -418 0
-419 0
